c Sudoku solution
p cnf 729 0
146 0
177 0
189 0
232 0
273 0
376 0
398 0
418 0
436 0
469 0
484 0
525 0
537 0
571 0
588 0
664 0
514 0
599 0
719 0
766 0
556 0
793 0
683 0
696 0
497 0
423 0
824 0
851 0
441 0
912 0
611 0
639 0
622 0
675 0
472 0
455 0
931 0
781 0
285 0
382 0
892 0
995 0
954 0
774 0
963 0
562 0
543 0
742 0
735 0
152 0
353 0
334 0
194 0
291 0
244 0
259 0
329 0
121 0
361 0
345 0
168 0
267 0
115 0
133 0
317 0
216 0
228 0
813 0
838 0
926 0
727 0
758 0
886 0
987 0
879 0
978 0
949 0
847 0
865 0
648 0
657 0
